WARNING: for repeatability, setting FPU to use double precision
============================[ Problem Statistics ]=============================
|                                                                             |
|  Number of variables:            50                                         |
|  Number of clauses:             218                                         |
|  Parse time:                   0.00 s                                       |
|                                                                             |
============================[ Search Statistics ]==============================
| Conflicts |          ORIGINAL         |          LEARNT          | Progress |
|           |    Vars  Clauses Literals |    Limit  Clauses Lit/Cl |          |
===============================================================================
===============================================================================
restarts              : 1
conflicts             : 53             (36426 /sec)
decisions             : 62             (0.00 % random) (42612 /sec)
propagations          : 656            (450859 /sec)
conflict literals     : 210            (11.02 % deleted)
Memory used           : 20.00 MB
CPU time              : 0.001455 s

UNSATISFIABLE
